(declare-const ND Int)
(declare-const |i'| Int)
(assert (exists ((tr?1 Int) (i?2 Int))
         (and (<= (- i?2) 0) (<= (+ i?2 -102399) 0)
                (or (<= (+ (- ND) tr?1 1) 0) (<= (+ ND (- tr?1) 1) 0))
                (= (+ |i'| (- i?2) -1) 0))))
(check-sat)
